c clasp version 2.1.1
c Reading from p27.cnf
c Solving...
s SATISFIABLE

c Models        : 1+    
c Time          : 0.891s (Solving: 0.13s 1st Model: 0.13s Unsat: 0.00s)
c CPU Time      : 0.880s
c Choices       : 8331
c Conflicts     : 471
c Restarts      : 1      (Average: 471.00 Last: 218)

c Variables     : 215253 (Eliminated: 67625 Frozen:    0)
c Constraints   : 250058 (Binary: 64.2% Ternary: 34.4% Other:  1.4%)
c Lemmas        : 471    (Binary:  0.4% Ternary:  0.6% Other: 98.9%)
c   Conflict    : 471    (Average Length: 54.4) 
c   Loop        : 0      (Average Length: 0.0) 
c   Other       : 0      (Average Length: 0.0)
c   Deleted     : 0     
